14
-1 95 30 13 5 50 66 68 51 44 65 4 38 76
15 -1 45 34 15 41 81 54 43 59 24 45 42 9
41 56 -1 15 77 50 83 94 53 56 20 33 55 39
89 20 57 -1 89 19 27 49 82 7 24 69 5 43
65 39 94 52 -1 90 41 41 3 42 62 93 59 38
59 11 22 2 45 -1 26 18 8 71 42 14 3 11
29 90 3 87 56 52 -1 14 86 18 29 51 80 83
23 51 91 31 71 11 60 -1 14 67 59 6 91 25
17 54 88 10 15 44 21 40 -1 57 56 29 73 81
98 86 74 99 75 1 90 94 83 -1 83 36 37 67
14 87 89 58 57 20 88 54 69 67 -1 57 42 60
35 26 33 29 73 48 14 50 10 46 69 -1 37 53
11 3 29 91 72 82 70 84 63 64 4 37 -1 2
11 30 19 7 42 2 75 82 70 65 91 73 21 -1
